30
1 0 150
2 0 184
2 1 311
3 0 264
3 1 301
3 2 273
4 0 149
4 1 291
4 2 281
4 3 66
5 0 53
5 1 39
5 2 313
5 3 132
5 4 140
6 0 69
6 1 194
6 2 36
6 3 112
6 4 296
6 5 93
7 0 277
7 1 259
7 2 86
7 3 98
7 4 130
7 5 130
7 6 281
8 0 166
8 1 177
8 2 263
8 3 135
8 4 271
8 5 157
8 6 250
8 7 157
9 0 7
9 1 124
9 2 263
9 3 154
9 4 162
9 5 169
9 6 135
9 7 113
9 8 239
10 0 141
10 1 70
10 2 97
10 3 45
10 4 234
10 5 115
10 6 236
10 7 109
10 8 177
10 9 89
11 0 20
11 1 272
11 2 304
11 3 114
11 4 56
11 5 313
11 6 165
11 7 95
11 8 229
11 9 198
11 10 21
12 0 67
12 1 134
12 2 144
12 3 95
12 4 206
12 5 41
12 6 149
12 7 210
12 8 50
12 9 111
12 10 318
12 11 259
13 0 41
13 1 117
13 2 181
13 3 164
13 4 280
13 5 99
13 6 107
13 7 239
13 8 93
13 9 223
13 10 276
13 11 130
13 12 198
14 0 113
14 1 159
14 2 302
14 3 320
14 4 231
14 5 216
14 6 221
14 7 307
14 8 298
14 9 265
14 10 265
14 11 305
14 12 71
14 13 250
15 0 61
15 1 204
15 2 158
15 3 249
15 4 122
15 5 163
15 6 51
15 7 166
15 8 285
15 9 9
15 10 168
15 11 290
15 12 56
15 13 135
15 14 118
16 0 103
16 1 296
16 2 235
16 3 160
16 4 203
16 5 303
16 6 285
16 7 128
16 8 98
16 9 122
16 10 243
16 11 87
16 12 77
16 13 75
16 14 166
16 15 22
17 0 94
17 1 123
17 2 266
17 3 119
17 4 181
17 5 180
17 6 193
17 7 48
17 8 275
17 9 318
17 10 103
17 11 244
17 12 320
17 13 212
17 14 96
17 15 251
17 16 270
18 0 128
18 1 86
18 2 154
18 3 56
18 4 86
18 5 51
18 6 6
18 7 276
18 8 295
18 9 12
18 10 235
18 11 291
18 12 301
18 13 163
18 14 19
18 15 100
18 16 96
18 17 23
19 0 293
19 1 280
19 2 149
19 3 69
19 4 218
19 5 109
19 6 256
19 7 87
19 8 11
19 9 171
19 10 87
19 11 94
19 12 98
19 13 111
19 14 194
19 15 152
19 16 28
19 17 251
19 18 138
20 0 286
20 1 91
20 2 131
20 3 7
20 4 183
20 5 271
20 6 273
20 7 222
20 8 48
20 9 265
20 10 87
20 11 311
20 12 222
20 13 183
20 14 297
20 15 22
20 16 120
20 17 38
20 18 81
20 19 96
21 0 22
21 1 51
21 2 14
21 3 150
21 4 47
21 5 38
21 6 224
21 7 119
21 8 302
21 9 66
21 10 211
21 11 290
21 12 233
21 13 165
21 14 121
21 15 155
21 16 43
21 17 160
21 18 174
21 19 229
21 20 119
22 0 126
22 1 127
22 2 178
22 3 226
22 4 143
22 5 104
22 6 117
22 7 315
22 8 7
22 9 28
22 10 204
22 11 79
22 12 289
22 13 111
22 14 91
22 15 207
22 16 121
22 17 125
22 18 232
22 19 83
22 20 307
22 21 65
23 0 82
23 1 158
23 2 256
23 3 73
23 4 112
23 5 54
23 6 42
23 7 179
23 8 281
23 9 154
23 10 108
23 11 112
23 12 157
23 13 141
23 14 152
23 15 216
23 16 171
23 17 154
23 18 93
23 19 59
23 20 93
23 21 102
23 22 47
24 0 63
24 1 145
24 2 89
24 3 120
24 4 56
24 5 17
24 6 213
24 7 281
24 8 211
24 9 97
24 10 286
24 11 42
24 12 33
24 13 17
24 14 137
24 15 273
24 16 78
24 17 266
24 18 257
24 19 304
24 20 284
24 21 209
24 22 67
24 23 181
25 0 88
25 1 24
25 2 155
25 3 100
25 4 127
25 5 65
25 6 142
25 7 14
25 8 302
25 9 189
25 10 280
25 11 219
25 12 233
25 13 83
25 14 228
25 15 13
25 16 250
25 17 87
25 18 45
25 19 189
25 20 153
25 21 191
25 22 208
25 23 204
25 24 116
26 0 60
26 1 110
26 2 122
26 3 168
26 4 164
26 5 309
26 6 245
26 7 240
26 8 314
26 9 149
26 10 47
26 11 240
26 12 305
26 13 28
26 14 51
26 15 58
26 16 107
26 17 90
26 18 104
26 19 99
26 20 294
26 21 294
26 22 79
26 23 156
26 24 307
26 25 198
27 0 157
27 1 268
27 2 217
27 3 61
27 4 144
27 5 241
27 6 208
27 7 144
27 8 258
27 9 57
27 10 93
27 11 306
27 12 131
27 13 230
27 14 285
27 15 125
27 16 207
27 17 27
27 18 292
27 19 216
27 20 208
27 21 131
27 22 163
27 23 3
27 24 293
27 25 132
27 26 139
28 0 134
28 1 52
28 2 164
28 3 283
28 4 174
28 5 169
28 6 96
28 7 279
28 8 222
28 9 133
28 10 319
28 11 62
28 12 148
28 13 184
28 14 267
28 15 34
28 16 119
28 17 89
28 18 145
28 19 76
28 20 124
28 21 204
28 22 232
28 23 127
28 24 75
28 25 128
28 26 221
28 27 87
29 0 282
29 1 265
29 2 138
29 3 62
29 4 202
29 5 152
29 6 22
29 7 140
29 8 197
29 9 303
29 10 96
29 11 248
29 12 241
29 13 311
29 14 16
29 15 68
29 16 116
29 17 119
29 18 65
29 19 50
29 20 6
29 21 245
29 22 166
29 23 134
29 24 125
29 25 24
29 26 42
29 27 261
29 28 24
